(set-option :produce-models true)
(set-logic QF_UF)
(declare-fun p8() Bool)
(declare-fun p2() Bool)
(declare-fun p14() Bool)
(declare-fun p32() Bool)
(declare-fun p23() Bool)
(declare-fun p31() Bool)
(declare-fun p17() Bool)
(declare-fun p16() Bool)
(declare-fun p39() Bool)
(declare-fun p22() Bool)
(declare-fun p15() Bool)
(declare-fun p19() Bool)
(declare-fun p29() Bool)
(declare-fun p28() Bool)
(declare-fun p25() Bool)
(declare-fun p1() Bool)
(declare-fun p35() Bool)
(declare-fun p20() Bool)
(declare-fun p36() Bool)
(declare-fun p7() Bool)
(declare-fun p33() Bool)
(declare-fun p27() Bool)
(declare-fun p5() Bool)
(declare-fun p26() Bool)
(declare-fun p37() Bool)
(declare-fun p9() Bool)
(declare-fun p30() Bool)
(declare-fun p12() Bool)
(declare-fun p18() Bool)
(declare-fun p3() Bool)
(declare-fun p34() Bool)
(declare-fun p21() Bool)
(declare-fun p10() Bool)
(declare-fun p11() Bool)
(declare-fun p24() Bool)
(declare-fun p6() Bool)
(declare-fun p38() Bool)
(declare-fun p4() Bool)
(declare-fun p13() Bool)
(declare-fun p0() Bool)
(assert
(and (or p8 p2 p14 p2 p32) (or p23 p31 (not p17) p16 (not p39)) (or p22 p23 p22 (not p15) (not p19)) (or p15 p14 p29 p28 (not p25)) (or p17 p1 p35 p20 p15) (or p22 (not p17) p36 p31 p1) (or p7 (not p33) (not p27) p27 (not p17)) (or p5 (not p26) (not p2) (not p23) (not p39)) (or p37 p1 p9 (not p30) p26) (or p2 (not p14) p32 p12 (not p27)) (or (not p26) (not p2) p31 (not p31) p18) (or p18 (not p19) (not p22) p26 (not p12)) (or p20 p39 p1 p30 p25) (or p29 p3 p27 p34 p18) (or p1 p17 (not p15) (not p30) (not p21)) (or (not p23) p3 (not p2) (not p20) p31) (or (not p33) (not p35) p9 (not p35) p10) (or p19 (not p26) (not p29) p11 (not p1)) (or p30 (not p35) p24 (not p20) p39) (or (not p19) (not p11) p5 p14 p30) (or (not p6) (not p39) (not p25) p8 (not p25)) (or (not p12) p3 p36 p38 p4) (or (not p7) p29 p23 p14 (not p10)) (or (not p12) (not p18) (not p10) (not p20) (not p20)) (or p25 p7 p29 (not p17) (not p6)) (or p39 (not p26) (not p1) (not p30) p15) (or (not p5) p29 (not p35) p21 (not p4)) (or (not p7) (not p13) (not p26) p20 (not p9)) (or p2 (not p21) p29 (not p21) (not p26)) (or (not p26) p15 (not p10) p29 (not p26)) (or (not p18) p19 p1 (not p24) p24) (or (not p24) p33 (not p34) (not p10) (not p19)) (or (not p15) p39 p11 (not p25) (not p5)) (or p6 p12 p6 p15 (not p16)) (or p22 (not p8) p13 p21 (not p11)) (or (not p28) (not p28) (not p39) p23 (not p33)) (or p39 p16 (not p34) (not p37) p31) (or p32 (not p0) p15 (not p33) (not p13)) (or p36 p18 p25 p4 (not p22)) (or p27 (not p10) p28 (not p38) (not p24)) (or (not p39) (not p25) p23 p38 p32) (or (not p18) p17 p1 p33 (not p37)) (or (not p38) p3 (not p36) (not p16) p4) (or (not p10) p19 (not p21) p14 (not p13)) (or (not p35) (not p27) (not p6) (not p33) p5) (or p8 p8 (not p1) (not p0) p28) (or (not p26) p21 (not p8) (not p34) (not p31)) (or (not p21) p9 (not p4) p6 (not p10)) (or (not p4) (not p19) (not p3) (not p39) (not p17)) (or p31 (not p13) (not p25) p28 (not p0)) (or p16 (not p20) p24 p35 (not p4)) (or p27 p23 p26 (not p2) p21) (or (not p18) p32 p35 p17 p30) (or (not p8) p34 p32 p2 (not p35)) (or (not p10) (not p0) (not p37) p29 (not p32)) (or p11 (not p22) p18 (not p37) p19) (or (not p14) p28 (not p31) p2 (not p6)) (or p26 p29 p38 (not p39) (not p4)) (or (not p31) (not p29) (not p20) p30 (not p21)) (or (not p28) (not p25) p14 p22 p19) (or (not p22) (not p30) (not p36) (not p12) p34) (or p21 p30 (not p13) (not p22) p21) (or p5 p8 (not p39) p34 p14) (or p25 p1 (not p12) (not p21) p30) (or p5 p32 (not p17) p17 (not p6)) (or (not p11) p32 p4 (not p21) (not p7)) (or p9 p15 p37 (not p4) (not p20)) (or (not p10) p26 (not p18) (not p31) p36) (or (not p39) p2 p38 p31 (not p6)) (or (not p17) (not p3) p37 p17 p2) (or (not p37) (not p21) (not p39) p16 p35) (or p31 p36 p5 (not p12) p32) (or p14 (not p11) p20 (not p39) p25) (or p12 p15 (not p7) (not p33) p33) (or p28 (not p33) p25 (not p32) p21) (or (not p22) p30 p25 (not p34) (not p28)) (or p35 (not p16) (not p39) p19 (not p7)) (or (not p6) (not p12) (not p13) p39 (not p2)) (or (not p14) p2 (not p1) p25 (not p16)) (or (not p37) p13 (not p17) p35 (not p9)) (or p36 (not p11) p12 p18 p10) (or p7 p37 p37 (not p2) (not p27)) (or (not p19) (not p16) (not p0) p24 (not p39)) (or p3 p11 p7 p26 (not p14)) (or (not p13) p10 (not p8) (not p18) (not p7)) (or p17 (not p29) (not p5) (not p16) (not p32)) (or (not p22) (not p18) (not p27) p14 p35) (or p7 (not p10) (not p31) p2 (not p16)) (or p6 p9 p15 (not p18) p7) (or p20 (not p0) (not p39) p8 (not p1)) (or (not p33) p31 p37 p5 (not p21)) (or p35 p7 p37 p39 (not p34)) (or p25 (not p14) p29 p33 (not p14)) (or (not p1) p27 (not p30) p21 (not p1)) (or p0 (not p3) p3 p21 (not p33)) (or (not p35) (not p11) p30 p23 p27) (or (not p30) (not p0) (not p28) p7 (not p22)) (or (not p26) p23 p1 p38 p9) (or (not p35) p0 p4 (not p23) p17) (or p22 p22 (not p11) (not p32) p21) (or (not p37) (not p27) p18 (not p6) (not p24)) (or p5 p7 p12 (not p26) p11) (or (not p36) p21 (not p3) p13 (not p4)) (or (not p38) (not p12) (not p9) p5 (not p5)) (or p22 p3 (not p38) (not p13) p24) (or (not p17) (not p35) p30 (not p31) (not p26)) (or (not p33) p7 (not p3) p11 (not p9)) (or p11 (not p2) p37 p35 p13) (or p24 p10 p31 (not p9) (not p36)) (or (not p2) p12 (not p37) (not p2) (not p7)) (or (not p23) (not p27) (not p39) p30 p36) (or p3 p26 (not p12) p29 p30) (or (not p36) p25 (not p0) p25 p33) (or p7 p6 p37 p26 (not p23)) (or p20 (not p28) (not p20) (not p0) p13) (or (not p38) (not p9) p8 p32 (not p2)) (or p21 (not p8) (not p3) p22 p33) (or p28 (not p37) p32 (not p14) (not p16)) (or p31 p15 p20 p20 p0) (or p37 (not p26) p30 p33 (not p8)) (or (not p14) p11 p1 (not p4) (not p36)) (or p17 p32 p24 p22 p26) (or (not p8) p0 p8 p12 (not p21)) (or (not p25) (not p27) p11 p11 (not p23)) (or p7 (not p17) p35 (not p16) p26) (or p8 (not p33) p7 p7 (not p34)) (or p6 p16 p1 (not p12) (not p29)) (or (not p32) p21 (not p37) p12 (not p20)) (or (not p29) (not p34) p1 (not p30) (not p2)) (or (not p22) p13 p24 (not p31) p10) (or p26 p6 p28 p34 p22) (or (not p27) p26 p23 p39 (not p16)) (or (not p29) p38 p11 p37 (not p10)) (or p25 (not p16) (not p38) (not p23) p36) (or p30 (not p7) p25 (not p36) (not p4)) (or (not p36) (not p23) p6 (not p12) (not p10)) (or (not p36) p20 p8 (not p18) (not p2)) (or (not p16) (not p0) p18 (not p24) p38) (or (not p25) (not p26) p22 (not p22) p13) (or p29 p1 p39 (not p4) p19) (or p22 (not p14) p10 p24 (not p31)) (or p32 p27 p3 p37 p7) (or p34 (not p28) (not p13) p38 (not p8)) (or p27 p4 (not p10) (not p17) p15) (or (not p33) (not p23) (not p28) p31 p1) (or p3 (not p13) p14 (not p15) (not p24)) (or p15 (not p28) p15 (not p13) (not p1)) (or p16 (not p22) (not p17) p10 (not p0)) (or (not p37) p31 p1 (not p32) p33) (or (not p11) p8 (not p29) p7 (not p30)) (or (not p9) p35 p5 (not p36) (not p35)) (or p7 (not p18) p18 p36 (not p37)) (or (not p33) p12 p26 p12 (not p34)) (or (not p5) p15 p3 p29 (not p27)) (or (not p39) (not p4) p18 p17 p19) (or p25 p16 (not p36) (not p4) p33) (or (not p29) (not p20) p27 (not p36) p10) (or (not p16) (not p36) p21 (not p38) (not p28)) (or (not p37) (not p28) (not p14) p20 p6) (or p21 (not p19) p13 p2 p7) (or p39 p4 (not p10) (not p34) (not p29)) (or p4 p6 p21 (not p35) (not p38)) (or (not p15) p14 p10 (not p1) p8) (or (not p6) (not p34) (not p33) p23 p2) (or p28 p23 p21 p2 (not p38)) (or (not p16) p24 p17 (not p14) (not p34)) (or (not p30) p21 p3 (not p12) (not p17)) (or p22 p8 (not p13) p23 (not p10)) (or p28 p20 p6 p28 p27) (or (not p36) (not p20) p24 (not p15) p39) (or (not p14) (not p14) p6 (not p20) (not p20)) (or p7 p0 p26 p9 p18) (or (not p2) (not p24) (not p22) p26 (not p20)) (or p29 (not p30) p12 p12 p7) (or (not p35) p33 p0 p37 (not p38)) (or p17 (not p31) p7 (not p19) (not p14)) (or p15 p11 (not p2) (not p17) (not p23)) (or (not p15) p12 p27 (not p6) (not p33)) (or (not p38) p35 (not p39) (not p29) (not p15)) (or (not p6) (not p13) p38 (not p27) (not p33)) (or p25 p10 p30 p22 (not p2)) (or (not p36) p10 p23 p39 (not p38)) (or (not p32) (not p11) p17 (not p26) p33) (or p18 (not p7) p24 (not p1) p4) (or p5 (not p17) (not p37) p39 p21) (or p27 p10 p22 (not p0) (not p8)) (or (not p26) (not p39) (not p39) (not p38) p34) (or (not p32) (not p28) (not p4) p24 (not p26)) (or (not p13) (not p19) p9 p11 p11) (or (not p29) (not p26) (not p28) (not p32) (not p20)) (or (not p23) (not p2) p21 p8 (not p32)) (or p7 p31 p9 p27 (not p15)) (or p0 p32 (not p29) p16 (not p20)) (or p24 (not p22) p13 (not p31) (not p8)) (or (not p8) p20 (not p26) p33 (not p18)) (or (not p26) (not p36) p20 (not p20) (not p15)) (or p4 p3 p36 (not p23) (not p34)) (or (not p30) p6 p38 p26 (not p15)) (or (not p10) p37 (not p32) p31 p14) (or p30 (not p19) p20 p16 p11) (or (not p10) p21 p36 (not p39) p39) (or (not p8) p34 (not p11) p1 (not p34)) (or p22 p39 p7 (not p8) (not p18)) (or (not p21) (not p2) (not p26) (not p7) (not p8)) (or (not p38) p10 p13 p20 (not p15)) (or (not p12) p8 (not p28) p3 p9) (or p30 p6 (not p27) (not p22) p19) (or p1 (not p24) p22 (not p31) p17) (or (not p1) (not p39) (not p32) p2 (not p22)) (or (not p6) p0 (not p32) p2 (not p7)) (or p39 (not p14) p14 (not p3) p4) (or p20 (not p4) (not p36) (not p32) p4) (or p5 p37 (not p5) (not p34) p24) (or p27 p22 (not p28) p9 (not p36)) (or p16 p18 (not p4) (not p33) p20) (or (not p11) (not p20) (not p36) (not p34) (not p25)) (or (not p12) (not p22) (not p21) (not p24) (not p16)) (or (not p16) p21 (not p20) p35 (not p20)) (or (not p38) p12 (not p2) (not p1) (not p7)) (or (not p9) p25 p15 p34 p30) (or (not p21) p17 p0 (not p7) (not p39)) (or p1 (not p4) (not p0) p31 (not p5)) (or p10 p37 (not p11) (not p38) p23) (or p32 (not p39) (not p14) p20 (not p23)) (or (not p11) p27 (not p20) (not p27) (not p35)) (or p14 p34 (not p2) (not p15) p5) (or (not p0) p19 (not p32) (not p4) (not p16)) (or (not p36) p10 p6 (not p11) (not p10)) (or (not p27) (not p5) p19 (not p18) p17) (or (not p24) p12 (not p12) (not p7) p2) (or (not p21) (not p25) p33 (not p10) (not p6)) (or (not p25) (not p37) p15 p12 p8) (or p25 p37 p39 p6 p33) (or p1 (not p38) (not p39) p17 (not p3)) (or p5 p0 p5 (not p8) p4) (or (not p5) p29 (not p35) p0 p38) (or (not p24) (not p18) (not p19) (not p10) (not p20)) (or (not p9) p6 (not p14) p30 (not p27)) (or (not p6) p31 p26 p30 p26) (or p31 (not p2) (not p19) (not p24) p27) (or p4 p24 (not p33) p30 (not p35)) (or (not p5) (not p21) (not p34) (not p0) p14) (or (not p38) (not p1) p26 (not p19) p19) (or (not p5) (not p5) (not p13) (not p35) (not p19)) (or p29 p13 (not p3) (not p17) p7) (or (not p34) p17 (not p38) (not p35) p37) (or (not p5) p11 (not p35) p7 p17) (or p28 p13 p17 p19 p25) (or (not p2) (not p14) p24 p4 p16) (or p16 (not p29) p18 p27 p4) (or p6 p32 (not p25) (not p29) (not p37)) (or p17 p3 (not p17) p23 (not p18)) (or (not p7) (not p10) p37 (not p14) p28) (or (not p10) p16 (not p36) (not p9) (not p27)) (or (not p24) p3 (not p11) p7 p39) (or (not p6) p6 p7 (not p9) (not p21)) (or p29 p18 p21 (not p7) p6) (or (not p1) p4 p19 (not p22) (not p1)) (or (not p28) (not p16) (not p0) (not p8) p31) (or (not p23) p9 p26 (not p39) (not p24)) (or (not p12) p17 (not p7) p21 (not p39)) (or p9 (not p22) (not p38) p1 (not p20)) (or p18 (not p31) (not p36) (not p8) (not p14)) (or (not p20) p17 (not p25) (not p22) p37) (or p14 p14 p18 p21 (not p37)) (or (not p19) (not p4) (not p1) p12 (not p5)) (or (not p30) p5 p27 (not p7) p30) (or (not p0) (not p11) (not p17) p3 (not p34)) (or (not p3) p12 (not p22) p7 p15) (or p25 (not p12) (not p24) p25 (not p33)) (or (not p1) p9 (not p10) (not p9) (not p17)) (or (not p39) (not p17) (not p27) (not p11) p31) (or (not p20) (not p10) p1 p34 (not p10)) (or p32 p39 (not p11) p27 p26) (or (not p30) (not p31) (not p21) p25 (not p24)) (or (not p29) p13 p30 p3 (not p26)) (or (not p6) p37 p36 (not p32) p27) (or p31 (not p14) p18 p0 p4) (or p10 (not p28) (not p25) p21 (not p27)) (or (not p18) (not p22) (not p27) (not p34) p30) (or (not p20) p31 p34 p38 (not p17)) (or p15 p28 p2 (not p4) p28) (or p31 (not p7) p39 p38 (not p33)) (or p11 p8 p38 p17 (not p25)) (or (not p9) p27 (not p20) p10 p29) (or (not p27) p18 (not p14) (not p0) (not p26)) (or (not p38) (not p23) (not p18) p26 (not p28)) (or p3 p8 (not p9) (not p5) (not p36)) (or p1 p23 p19 (not p1) p32) (or (not p23) (not p25) (not p17) (not p9) (not p8)) (or p7 p39 p29 p24 (not p18)) (or (not p24) p29 p11 (not p20) (not p28)) (or p35 p36 (not p27) p21 p1) (or (not p13) p25 (not p15) p11 (not p35)) (or (not p39) (not p10) (not p5) (not p14) (not p19)) (or (not p33) p19 p23 p28 p38) (or p29 p5 p32 (not p9) (not p1)) (or p1 (not p24) (not p28) (not p21) p6) (or (not p13) (not p20) (not p31) p18 (not p18)) (or (not p4) p17 (not p16) p33 p32) (or p11 (not p19) p24 p1 p36) (or p23 p37 (not p20) p8 p13) (or p10 (not p15) p6 p2 p19) (or p21 (not p18) p18 p28 (not p11)) (or (not p4) (not p1) (not p36) (not p25) p7) (or (not p35) (not p3) (not p1) p32 (not p15)) (or p35 p5 p20 (not p34) p16) (or p18 p32 p19 p9 p6) (or (not p26) p18 p35 (not p1) p24) (or p38 (not p26) (not p11) p36 p37) (or (not p5) (not p8) (not p3) p18 p32) (or (not p18) (not p12) p39 (not p9) (not p21)) (or (not p30) p28 (not p21) (not p2) (not p14)) (or (not p8) (not p7) p10 (not p33) p8) (or (not p36) p4 p31 p17 (not p22)) (or (not p20) (not p18) p18 (not p30) p16) (or p22 p15 p8 (not p8) (not p14)) (or (not p25) p13 (not p0) p34 (not p7)) (or (not p0) p6 p2 (not p33) (not p25)) (or p21 (not p2) p23 (not p22) (not p23)) (or p4 p7 (not p27) (not p29) (not p6)) (or p2 p29 (not p26) p35 (not p29)) (or p37 (not p3) p5 p16 (not p6)) (or (not p27) p10 p23 p6 (not p11)) (or (not p28) (not p9) (not p28) (not p22) (not p25)) (or p24 p33 (not p4) p27 (not p2)) (or (not p14) p14 p7 p16 p39) (or p6 p31 p5 (not p24) p14) (or p17 (not p30) p23 p13 (not p23)) (or (not p33) p13 (not p28) (not p25) (not p16)) (or p23 (not p15) (not p3) (not p35) p7) (or p29 (not p10) (not p13) p8 p3) (or p20 (not p3) p5 p3 p8) (or p31 (not p29) p39 p31 p21) (or (not p28) (not p20) (not p18) p6 p35) (or (not p5) p39 p11 (not p39) p26) (or (not p17) p25 p14 p24 p13) (or (not p33) p27 p24 p34 p32) (or (not p18) p15 p11 (not p16) p7) (or (not p13) (not p17) p32 p10 p27) (or p15 (not p15) (not p37) p25 p3) (or (not p17) (not p24) p23 p3 (not p13)) (or p0 (not p20) (not p28) (not p32) p19) (or (not p22) (not p10) p9 p5 (not p3)) (or (not p28) p8 (not p6) (not p21) p28) (or (not p24) (not p11) (not p6) (not p15) (not p35)) (or (not p9) p4 p31 (not p32) p24) (or p32 p15 (not p33) p2 p3) (or p26 p26 (not p22) p12 (not p35)) (or p22 p30 p14 p1 p13) (or p34 p2 (not p26) p1 (not p12)) (or p15 p15 p14 p22 p4) (or p26 p29 (not p31) p30 p35) (or p30 (not p13) (not p9) (not p8) (not p14)) (or (not p19) (not p25) p34 (not p28) (not p14)) (or p27 p12 (not p9) (not p10) (not p24)) (or (not p11) (not p21) p38 (not p12) (not p37)) (or (not p23) p9 p17 (not p36) (not p29)) (or (not p29) (not p32) (not p38) p1 p23) (or p21 (not p10) p37 p15 p19) (or (not p15) p29 (not p26) (not p13) (not p36)) (or (not p29) (not p1) p21 p28 p31) (or p31 p19 p21 (not p23) p6) (or p6 (not p12) (not p34) (not p18) (not p32)) (or p34 (not p25) (not p19) (not p24) p38) (or p5 (not p33) p28 p34 (not p36)) (or (not p5) p30 (not p3) (not p17) p23) (or (not p27) p7 p3 (not p0) p0) (or p31 p6 p12 p18 p16) (or p15 p28 p26 (not p38) (not p11)) (or p6 (not p32) (not p30) (not p1) p32) (or (not p13) p22 (not p2) (not p35) (not p4)) (or p16 p32 p38 (not p36) (not p30)) (or p30 p5 (not p32) (not p17) p15) (or (not p32) p10 (not p8) p19 p31) (or (not p12) p36 (not p12) p18 p34) (or p17 p25 (not p26) (not p2) (not p14)) (or p35 p2 p24 (not p25) (not p26)) (or (not p35) (not p34) (not p33) p17 (not p12)) (or p2 p24 (not p7) (not p31) p37) (or (not p34) (not p25) (not p10) p10 p0) (or (not p32) p1 (not p6) p19 p33) (or p8 (not p33) p19 p22 (not p7)) (or p4 p27 (not p26) p10 p14) (or (not p23) (not p23) p13 p0 p12) (or (not p33) (not p35) (not p18) p38 p5) (or (not p29) p20 (not p18) p24 p7) (or p28 p38 p28 (not p11) (not p24)) (or p29 p27 p28 (not p35) p7) (or p29 (not p5) p2 (not p10) (not p0)) (or p14 p26 (not p6) p6 p15) (or (not p28) p23 (not p22) p29 p8) (or (not p10) (not p38) (not p5) p6 p27) (or (not p18) p31 p12 (not p17) (not p1)) (or p2 (not p27) (not p39) p35 (not p29)) (or (not p28) (not p9) (not p20) p30 (not p34)) (or p1 (not p16) (not p36) p14 p26) (or p22 (not p29) (not p9) p29 p31) (or p31 p1 (not p29) (not p22) p33) (or (not p19) (not p3) (not p13) p18 (not p32)) (or p25 p12 p9 p11 (not p30)) (or p1 (not p3) (not p5) p16 p1) (or (not p11) (not p21) p33 p8 (not p7)) (or p35 p33 p35 p7 p5) (or p17 (not p34) p9 (not p13) (not p7)) (or (not p8) (not p12) p35 (not p26) (not p15)) (or (not p25) p8 (not p20) (not p1) (not p26)) (or (not p22) (not p39) p5 p20 p0) (or p2 (not p25) p20 (not p14) p17) (or p37 (not p18) (not p6) (not p4) (not p9)) (or (not p38) p28 p10 (not p6) p21) (or (not p6) (not p36) p17 (not p3) p26) (or (not p16) p39 (not p39) p30 p26) (or (not p3) p8 p10 (not p26) (not p5)) (or p38 (not p37) (not p35) (not p35) (not p8)) (or p34 (not p11) p5 p22 (not p33)) (or (not p30) p24 (not p15) (not p7) p29) (or (not p21) (not p4) p9 (not p14) (not p31)) (or (not p37) (not p18) (not p15) (not p0) (not p11)) (or p19 p29 p6 (not p21) p30) (or p37 (not p0) p27 p39 (not p13)) (or (not p38) p10 p10 (not p33) p16) (or p22 p26 p12 p27 p35) (or (not p13) p18 (not p18) p21 (not p25)) (or (not p15) (not p37) p13 p12 p9) (or p27 p27 (not p4) p36 p9) (or (not p27) (not p4) p38 p26 (not p31)) (or (not p2) (not p30) p23 p37 (not p38)) (or (not p30) (not p28) (not p20) (not p39) p8) (or p21 (not p4) (not p24) (not p36) (not p9)) (or (not p39) (not p23) (not p3) (not p18) p6) (or (not p18) p25 (not p37) p26 (not p24)) (or p36 p31 p16 (not p32) (not p9)) (or (not p11) p34 p36 (not p35) (not p33)) (or (not p22) (not p34) (not p8) p17 (not p24)) (or p6 p39 (not p0) p3 (not p11)) (or (not p38) (not p0) (not p3) (not p26) p33) (or (not p35) p18 (not p36) (not p2) p17) (or (not p23) (not p0) p11 p4 (not p38)) (or p10 p30 p31 (not p6) (not p7)) (or p18 p21 p24 (not p4) (not p1)) (or (not p2) (not p37) (not p27) (not p35) p4) (or p28 (not p19) p6 p5 (not p24)) (or p33 p30 (not p25) p1 (not p7)) (or p18 p17 p18 p28 p19) (or p33 p2 (not p39) (not p36) p31) (or p7 (not p4) p6 (not p28) (not p25)) (or p36 p2 (not p38) (not p37) p25) (or (not p11) (not p3) (not p11) (not p16) (not p17)) (or p32 p21 p35 (not p23) p31) (or (not p2) p4 p6 (not p33) (not p25)) (or p12 (not p29) p34 (not p21) p39) (or (not p30) (not p39) (not p7) p3 (not p26)) (or (not p22) p20 p14 p37 (not p32)) (or p9 (not p11) (not p12) (not p11) (not p15)) (or p30 p15 (not p37) p4 (not p2)) (or (not p18) p14 (not p20) p33 p18) (or p14 (not p9) p1 (not p10) p10) (or p6 (not p18) (not p22) (not p8) (not p33)) (or (not p29) (not p15) p15 (not p21) p15) (or p4 p10 (not p17) (not p24) p12) (or (not p6) p27 p14 p19 (not p6)) (or (not p9) (not p21) (not p33) p25 p3) (or (not p34) (not p20) p1 (not p36) p11) (or (not p36) (not p18) (not p15) p28 (not p30)) (or (not p25) (not p38) p28 p27 p22) (or (not p27) p10 (not p7) p24 p32) (or p23 (not p36) (not p22) (not p2) p2) (or (not p12) p7 p24 p6 (not p32)) (or p4 (not p26) (not p22) p13 (not p18)) (or p22 p0 p2 (not p8) p0) (or (not p27) (not p21) p38 (not p5) (not p29)) (or (not p22) (not p25) p34 p32 p18) (or p21 p9 (not p20) (not p35) p39) (or (not p3) (not p14) p26 p1 p16) (or (not p15) p25 (not p20) (not p6) (not p0)) (or p19 p18 p23 p24 p9) (or (not p32) (not p1) (not p1) p20 (not p2)) (or p1 p9 p23 (not p39) (not p31)) (or p29 p20 (not p15) p28 p10) (or p36 (not p30) p36 (not p23) (not p21)) (or p4 p32 p35 (not p2) (not p19)) (or (not p29) p25 p20 p30 (not p34)) (or p2 (not p33) (not p20) p22 p22) (or (not p6) p12 p20 (not p5) p3) (or p34 p14 p2 (not p11) (not p37)) (or p35 (not p17) (not p33) p3 (not p31)) (or p10 p3 p20 (not p23) (not p31)) (or p39 (not p36) (not p32) p12 p25) (or (not p5) (not p38) (not p0) (not p23) p17) (or (not p16) p16 p19 p25 (not p38)) (or (not p16) (not p24) p33 p17 p2) (or (not p39) (not p21) p5 (not p6) (not p18)) (or p37 (not p37) p7 (not p15) p34) (or (not p9) (not p8) (not p35) p30 (not p26)) (or p8 (not p24) p2 p28 (not p21)) (or p20 p35 p1 p36 (not p0)) (or (not p6) (not p36) (not p0) p5 p3) (or (not p4) (not p2) (not p1) p18 p35) (or p37 p19 (not p31) (not p0) (not p5)) (or (not p29) (not p18) (not p11) p36 p9) (or p14 p9 (not p39) p39 (not p37)) (or p26 p35 (not p20) (not p3) p21) (or p4 (not p0) p8 (not p5) p12) (or p10 (not p17) p22 (not p23) p23) (or (not p27) (not p1) (not p19) p39 p5) (or (not p39) (not p39) (not p31) p7 (not p25)) (or (not p3) (not p2) (not p22) p20 p0) (or p31 (not p31) p17 p29 p15) (or (not p19) p17 p28 p5 p11) (or (not p6) (not p17) (not p34) (not p14) p38) (or p35 (not p29) (not p28) (not p39) (not p23)) (or (not p19) p11 p6 p39 (not p5)) (or (not p13) p35 (not p30) p6 (not p37)) (or p20 (not p11) (not p11) (not p19) (not p13)) (or (not p26) p39 p16 p4 (not p24)) (or p25 p36 (not p5) (not p7) (not p34)) (or (not p37) (not p13) (not p18) (not p5) p1) (or p0 (not p0) p39 (not p23) (not p38)) (or (not p12) p9 p19 (not p7) (not p20)) (or p1 p37 (not p12) (not p14) (not p35)) (or p37 p4 p28 (not p6) p34) (or p12 p19 (not p17) p26 p19) (or p0 p20 p15 p5 p11) (or p3 p10 p28 p27 (not p15)) (or (not p7) p23 p6 p10 (not p26)) (or p11 p3 (not p6) (not p38) (not p16)) (or p32 p33 p7 p5 (not p10)) (or p33 p20 p11 (not p11) (not p20)) (or (not p39) (not p14) p28 p37 (not p5)) (or p16 (not p13) p28 (not p1) (not p20)) (or p18 p25 (not p24) (not p1) (not p17)) (or (not p7) p13 (not p9) p18 (not p22)) (or p29 (not p11) p17 p28 p14) (or p39 (not p29) p21 p39 p31) (or p27 p28 p22 (not p34) p2) (or p34 p25 (not p17) p36 p37) (or (not p24) p16 p6 (not p36) p11) (or p27 (not p11) p36 p17 p32) (or p2 p29 (not p20) p1 p20) (or p10 (not p11) (not p29) p9 p9) (or p14 p23 (not p19) (not p29) p12) (or p20 (not p14) p28 p6 (not p34)) (or (not p33) (not p26) p34 (not p2) p22) (or p29 p32 (not p22) p4 p12) (or (not p33) (not p24) (not p6) (not p21) (not p2)) (or (not p26) (not p39) p32 p36 p11) (or p7 p33 p2 (not p27) (not p16)) (or (not p1) (not p34) (not p6) (not p15) (not p5)) (or (not p27) p20 (not p9) (not p32) (not p2)) (or (not p4) p20 (not p35) p2 (not p18)) (or (not p34) (not p30) p29 (not p3) (not p37)) (or (not p37) p27 p28 p37 (not p28)) (or p34 (not p16) p17 (not p27) p24) (or (not p38) (not p23) p20 (not p21) p27) (or p9 (not p9) (not p38) p14 (not p13)) (or (not p20) p28 (not p3) p20 (not p38)) (or p15 (not p20) (not p17) (not p9) (not p24)) (or (not p11) (not p2) p14 p5 p9) (or p39 (not p20) (not p33) p4 p22) (or p38 (not p26) (not p23) (not p5) (not p38)) (or (not p8) (not p10) (not p12) p14 (not p16)) (or (not p8) p8 p34 (not p3) (not p15)) (or p18 p26 p22 p9 p25) (or (not p5) (not p29) p13 (not p2) (not p13)) (or p22 p19 (not p17) (not p0) p34) (or (not p1) p11 (not p34) (not p24) p3) (or (not p35) p28 (not p7) (not p16) p9) (or p33 p21 p21 p36 p23) (or (not p0) p12 p16 p29 (not p13)) (or p3 (not p21) (not p4) p5 (not p24)) (or p31 (not p21) p16 p25 (not p23)) (or (not p8) (not p10) (not p23) (not p22) (not p36)) (or p14 p7 (not p28) p7 (not p35)) (or p21 (not p29) (not p16) (not p34) (not p15)) (or (not p19) (not p14) (not p13) (not p17) (not p26)) (or p29 p31 p14 p19 p31) (or (not p26) p5 (not p9) p19 (not p6)) (or (not p28) p17 p23 p21 p34) (or (not p21) (not p12) (not p6) p8 (not p19)) (or (not p27) p18 p37 p31 (not p38)) (or (not p1) p24 (not p13) p24 (not p35)) (or (not p34) p1 (not p32) (not p25) (not p21)) (or (not p23) (not p20) p6 (not p30) (not p15)) (or (not p38) p35 (not p36) (not p29) (not p7)) (or (not p8) p38 (not p27) p3 p0) (or (not p27) (not p39) (not p24) (not p24) (not p26)) (or p6 p17 (not p11) (not p39) p12) (or (not p38) p16 (not p6) (not p5) (not p19)) (or (not p25) (not p17) p10 p0 (not p11)) (or p37 (not p1) (not p38) p14 (not p8)) (or (not p39) (not p12) p15 p5 p37) (or p33 (not p25) (not p27) (not p15) p25) (or (not p29) p2 (not p12) p13 p0) (or (not p26) p39 (not p16) p10 p24) (or (not p34) p26 p19 (not p37) p1) (or p3 p5 (not p36) (not p9) p9) (or (not p11) (not p37) (not p11) (not p32) (not p28)) (or p35 (not p15) (not p39) (not p12) p29) (or (not p23) p28 (not p13) p26 (not p39)) (or (not p12) (not p25) p24 p34 (not p10)) (or (not p7) p0 p38 p7 p15) (or p28 (not p26) p27 (not p21) (not p14)) (or p31 (not p24) (not p31) (not p38) p38) (or (not p22) p9 p2 p26 (not p18)) (or p30 p12 (not p1) p23 p20) (or p22 p35 (not p26) p31 (not p9)) (or (not p21) p37 p16 (not p39) p39) (or (not p8) (not p37) p4 p39 p18) (or (not p13) (not p12) (not p11) p37 (not p4)) (or (not p37) (not p12) (not p27) p2 (not p21)) (or p10 p19 (not p16) p30 p37) (or p28 p17 (not p28) p20 p27) (or (not p26) (not p4) (not p32) p1 (not p33)) (or p24 p28 (not p18) p24 (not p13)) (or (not p22) (not p17) p19 p19 (not p28)) (or p25 (not p2) (not p24) p16 (not p9)) (or p18 (not p34) p7 p10 (not p39)) (or (not p23) p16 (not p8) (not p37) p5) (or (not p3) (not p24) p24 p36 (not p5)) (or (not p6) (not p33) p9 p9 p10) (or p2 (not p25) (not p22) p28 p4) (or (not p28) (not p20) p2 (not p6) (not p3)) (or (not p21) (not p38) p27 p12 (not p11)) (or p35 p29 (not p33) (not p12) p26) (or (not p17) (not p12) (not p1) (not p37) (not p16)) (or p9 p30 p27 (not p4) (not p4)) (or (not p6) (not p21) (not p21) (not p0) (not p31)) (or (not p5) p10 p18 (not p3) p5) (or (not p18) (not p30) p34 p30 p8) (or (not p35) p31 (not p38) p5 (not p8)) (or (not p13) (not p1) (not p12) (not p13) p7) (or (not p6) p25 (not p5) (not p11) (not p18)) (or (not p8) (not p15) p3 p30 p37) (or (not p33) p38 (not p4) p15 p5) (or (not p29) (not p32) (not p30) (not p30) (not p12)) (or p22 p27 p35 p23 p9) (or (not p26) p2 p30 (not p9) (not p25)) (or (not p11) p19 p15 p17 p19) (or (not p11) (not p35) (not p0) (not p26) p9) (or p10 p22 p35 (not p28) (not p0)) (or (not p14) (not p3) (not p30) p22 (not p9)) (or (not p26) (not p29) p34 (not p8) p17) (or (not p31) p4 (not p36) p25 (not p25)) (or (not p39) (not p11) (not p15) p18 p39) (or p10 p37 (not p23) p23 p39) (or p32 p16 (not p22) p34 p36) (or (not p5) p8 p24 p31 (not p17)) (or p34 (not p26) (not p29) p28 p22) (or p21 p16 (not p8) p19 (not p38)) (or (not p21) p21 (not p10) (not p18) (not p39)) (or (not p13) (not p28) (not p2) (not p1) p20) (or (not p22) p11 (not p15) (not p30) (not p7)) (or p13 p1 p0 (not p15) (not p17)) (or p38 (not p7) (not p14) p32 (not p13)) (or p6 p28 (not p9) (not p13) p36) (or (not p35) p18 p7 p1 p29) (or p25 p27 p30 (not p19) (not p13)) (or (not p34) p32 p13 (not p37) (not p31)) (or (not p25) (not p30) (not p38) p31 (not p37)) (or (not p16) (not p39) p27 (not p12) (not p32)) (or (not p39) (not p26) p11 p15 (not p2)) (or p27 p38 p21 (not p39) p18) (or p24 p14 (not p1) (not p21) (not p20)) (or p4 (not p0) p8 p25 p35) (or (not p16) p15 (not p19) (not p29) (not p10)) (or p30 p5 p5 p22 (not p33)) (or (not p30) (not p2) p39 p4 (not p22)) (or p22 (not p12) p29 (not p34) p35) (or p15 p6 (not p25) p25 (not p8)) (or (not p24) p33 (not p35) p35 p19) (or (not p25) p5 p16 p20 p37) (or p22 p38 (not p39) p23 (not p38)) (or (not p9) (not p13) p24 (not p3) p9) (or (not p30) (not p15) p31 (not p18) (not p17)) (or (not p35) p25 (not p38) (not p38) (not p35)) (or (not p24) p18 (not p20) (not p29) p6) (or (not p6) (not p30) (not p21) p7 (not p9)) (or (not p32) p9 p23 (not p20) (not p31)) (or p39 (not p38) (not p8) (not p38) p18) (or p4 p0 p6 p37 (not p25)) (or (not p29) p13 p18 (not p3) (not p4)) (or (not p33) p4 (not p24) p11 (not p5)) (or p24 (not p23) (not p38) p11 (not p4)) (or p4 p3 (not p37) p7 p38) (or p14 p20 (not p14) (not p39) (not p37)) (or (not p6) (not p15) (not p23) (not p26) p33) (or (not p4) p4 (not p30) p19 p20) (or (not p3) (not p36) p8 (not p1) (not p13)) (or (not p33) (not p34) p16 (not p18) (not p3)) (or (not p0) p18 (not p19) (not p23) (not p4)) (or p39 (not p10) p20 p28 p39) (or (not p30) (not p32) p18 (not p24) (not p19)) (or (not p4) (not p20) (not p26) (not p7) (not p31)) (or (not p17) (not p8) p0 (not p23) (not p38)) (or p4 (not p23) (not p23) p6 p28) (or (not p2) (not p36) (not p13) p27 p24) (or (not p19) p27 p10 p0 (not p11)) (or (not p16) (not p10) p32 (not p23) p7) (or (not p21) (not p26) p8 p4 p23) (or (not p1) p25 p29 p31 (not p6)) (or p8 p28 p4 p26 p4) (or (not p9) (not p1) p16 p34 (not p11)) (or (not p3) p38 p21 (not p1) p29) (or p17 (not p17) p12 p19 (not p32)) (or (not p25) (not p37) (not p20) p32 p0) (or p29 (not p15) p21 (not p36) (not p10)) (or (not p23) (not p7) (not p10) p24 (not p8)) (or p11 p21 p13 (not p17) p21) (or (not p8) (not p12) p32 (not p19) (not p3)) (or (not p18) p11 (not p10) (not p9) p2) (or p16 (not p6) p8 p27 p19) (or (not p4) p0 p22 (not p38) (not p31)) (or p14 (not p19) (not p25) p5 (not p12)) (or (not p23) (not p39) p0 (not p26) p10) (or p39 p38 (not p22) (not p21) (not p9)) (or (not p35) p12 (not p22) p31 p28) (or (not p33) p31 p26 (not p30) (not p28)) (or (not p31) (not p23) p17 p13 p37) (or p13 p17 p37 p27 (not p39)) (or (not p24) p7 (not p17) p17 (not p23)) (or p37 (not p39) p34 (not p23) (not p22)) (or p32 p15 p9 (not p7) (not p31)) (or p29 (not p5) p26 (not p5) (not p18)) (or p29 p34 (not p12) (not p3) (not p35)) (or (not p31) (not p33) (not p27) p27 p34) (or (not p23) p17 (not p26) p25 p15) (or p13 (not p0) (not p35) p27 (not p10)) (or (not p11) (not p23) (not p17) p34 (not p22)) (or (not p12) p39 p37 p28 (not p12)) (or (not p10) (not p26) (not p35) (not p4) p18) (or (not p15) (not p35) p19 (not p27) (not p28)) (or p27 p22 (not p39) (not p10) p37) (or p17 p23 (not p29) (not p34) p18) (or p2 p31 p36 p2 p33) (or (not p21) (not p3) (not p10) p23 (not p14)) (or p31 (not p2) (not p22) p13 (not p1)) (or p19 (not p33) (not p14) (not p32) (not p34)) (or (not p28) (not p9) p10 (not p2) p39) (or (not p2) p18 (not p20) p3 (not p20)) (or p28 (not p13) p14 p26 p30) (or p6 p19 p10 (not p8) (not p18)) (or p11 p34 (not p34) p15 (not p25)) (or (not p12) (not p20) p35 (not p36) p17) (or p30 p38 p11 p35 p35) (or p20 p7 (not p34) (not p30) (not p33)) (or (not p4) p26 (not p36) p28 (not p11)) (or p22 (not p21) p32 p19 p16) (or (not p7) (not p26) p32 p28 p27) (or p27 (not p37) (not p33) p25 (not p3)) (or p30 p19 (not p15) (not p16) (not p3)) (or p35 p16 (not p11) p25 p1) (or (not p38) p31 p36 p20 p39) (or (not p1) (not p37) p8 p13 p10) (or (not p13) (not p20) (not p27) (not p10) (not p37)) (or (not p31) (not p19) p11 p38 (not p25)) (or p8 (not p1) (not p28) (not p25) (not p37)) (or p35 p28 (not p10) (not p37) p39) (or p26 (not p29) (not p15) (not p25) p3) (or p23 (not p38) (not p1) (not p2) (not p10)) (or p20 (not p38) (not p22) (not p13) p24) (or (not p9) p6 p23 p37 p24) (or p17 (not p32) (not p8) p18 p23) (or p15 p19 p38 p36 (not p32)) (or (not p8) p13 (not p7) (not p23) (not p37)) (or (not p6) p4 (not p38) (not p4) (not p28)) (or p15 (not p32) (not p19) (not p39) p23) (or (not p27) (not p22) p28 (not p8) (not p20)) (or p11 (not p7) (not p26) (not p16) (not p22)) (or (not p19) p28 p11 p16 (not p26)) (or p6 p0 (not p24) p32 p28) (or (not p22) p38 (not p24) (not p19) p2) (or (not p39) (not p24) p37 (not p20) (not p15)) (or p36 p37 p16 p27 p24) (or (not p15) p10 (not p12) (not p0) p32) (or (not p31) p12 p6 p19 p6) (or p21 (not p21) p8 (not p33) p11) (or p10 (not p14) (not p32) (not p17) (not p0)) (or (not p12) (not p34) p9 p22 p10) (or (not p27) p8 (not p14) (not p2) p13) (or p5 (not p26) p4 (not p24) p9) (or p39 (not p19) (not p15) (not p5) (not p36)) (or p7 p15 p29 p13 (not p0)) (or (not p36) p27 (not p28) p17 (not p7)) (or (not p16) p31 (not p22) (not p6) p32) (or p8 p15 p14 p17 p18) (or (not p3) (not p21) p4 p19 (not p9)) (or (not p24) (not p0) p13 (not p25) (not p33)) (or p27 (not p39) p39 p6 (not p11)) (or p29 (not p33) (not p10) p26 p19) (or (not p14) p17 p4 p10 (not p28)) (or p29 p20 (not p36) (not p37) p7) (or p9 p6 p26 p29 p11) (or (not p12) (not p38) (not p4) p14 (not p13)) (or (not p24) (not p33) (not p28) p14 p17) (or p18 (not p20) p19 p3 (not p32)) (or p37 p37 (not p0) p10 (not p16)) (or p12 (not p38) (not p27) (not p20) (not p32)) (or (not p35) p6 (not p16) p4 (not p18)) (or p33 p21 (not p22) p33 (not p3)) (or (not p2) (not p35) p18 (not p0) p19) (or (not p13) (not p9) (not p14) p11 (not p38)) (or p16 (not p1) p28 p2 p14) (or p23 p14 p19 p5 (not p23)) (or p17 (not p1) (not p20) (not p10) (not p27)) (or (not p36) p25 (not p22) p14 (not p12)) (or p26 (not p8) p19 p24 p3) (or p37 p34 (not p4) p21 p15) (or p31 (not p27) p26 (not p3) p1) (or (not p13) p10 (not p24) (not p27) (not p29)) (or (not p18) p3 (not p35) p3 p14) (or p39 (not p11) (not p14) p37 p19) (or (not p23) (not p24) p17 p24 p17) (or (not p9) p5 p0 (not p12) (not p13)) (or (not p38) p7 p24 p25 (not p0)) (or (not p2) (not p25) (not p19) (not p30) p35) (or p3 p13 (not p4) p12 (not p31)) (or (not p7) p3 (not p8) (not p38) (not p27)) (or (not p39) (not p37) p18 p21 p39) (or (not p29) (not p7) p27 (not p20) p13) (or (not p10) (not p26) (not p17) p21 (not p11)) (or p0 (not p22) p8 p7 (not p9)) (or p39 p23 (not p4) p17 (not p7)) (or p13 (not p14) p24 (not p32) (not p23)) (or (not p21) (not p1) (not p24) (not p8) (not p35)) (or (not p26) (not p10) p17 p19 (not p29)) (or (not p36) p9 p19 (not p11) p36) (or p35 p2 p8 (not p29) p16) (or (not p28) (not p39) p23 (not p14) p12) (or (not p38) (not p26) p26 (not p14) p10) (or (not p20) p39 (not p7) (not p21) (not p30)) (or p3 (not p11) p29 (not p6) p7) (or (not p0) p1 (not p28) (not p2) (not p27)) (or p13 p38 p19 (not p29) (not p32)) (or (not p5) (not p24) (not p34) (not p28) (not p16)))
)
(check-sat)
(get-model)
